=obj=                -600052168.906547
X_0_0                0
X_1_0                0
X_2_0                0
X_3_0                0
X_4_0                0
X_5_0                0
X_6_0                0
X_7_0                0
X_8_0                0
X_9_0                0
X_10_0               0
X_11_0               0
X_12_0               0
X_13_0               1
X_14_0               0
X_15_0               0
X_16_0               0
X_17_0               0
X_18_0               0
X_19_0               0
X_20_0               0
X_21_0               0
X_22_0               0
X_23_0               0
X_24_0               0
X_25_0               0
X_26_0               0
X_27_0               0
X_28_0               0
X_29_0               0
X_30_0               0
X_31_0               0
X_32_0               0
X_33_0               0
X_34_0               0
X_35_0               0
X_36_0               0
X_37_0               0
X_38_0               0
X_39_0               1
X_40_0               0
X_41_0               0
X_42_0               0
X_43_0               0
X_44_0               0
X_45_0               0
X_46_0               0
X_47_0               0
X_48_0               0
X_49_0               0
X_50_0               0
X_51_0               1
X_52_0               1
X_53_0               1
X_54_0               0
X_55_0               0
X_56_0               0
X_57_0               0
X_58_0               0
X_59_0               0
X_60_0               0
X_61_0               0
X_62_0               0
X_63_0               0
X_64_0               0
X_65_0               0
X_66_0               1
X_67_0               1
X_68_0               0
X_69_0               0
X_70_0               0
X_71_0               0
X_72_0               0
X_73_0               0
X_74_0               0
X_75_0               0
X_76_0               0
X_77_0               0
X_78_0               0
X_79_0               0
X_80_0               0
X_81_0               0
X_82_0               0
X_83_0               0
X_84_0               0
X_85_0               0
X_86_0               0
X_87_0               0
X_88_0               0
X_89_0               0
X_90_0               0
X_91_0               1
X_92_0               0
X_93_0               0
X_94_0               0
X_95_0               0
X_96_0               0
X_97_0               0
X_98_0               0
X_99_0               0
X_100_0              0
X_101_0              0
X_102_0              0
X_103_0              0
X_104_0              1
X_105_0              1
X_106_0              0
X_107_0              0
X_108_0              0
X_109_0              0
X_110_0              0
X_111_0              0
X_112_0              0
X_113_0              0
X_114_0              0
X_115_0              0
X_116_0              0
X_117_0              0
X_118_0              1
X_119_0              0
X_120_0              0
X_121_0              0
X_122_0              0
X_123_0              0
X_124_0              0
X_125_0              0
X_126_0              0
X_127_0              0
X_128_0              0
X_129_0              1
X_130_0              1
X_131_0              0
X_132_0              0
X_133_0              0
X_134_0              0
X_135_0              0
X_136_0              0
X_137_0              0
X_138_0              0
X_139_0              0
X_140_0              0
X_141_0              0
X_142_0              0
X_143_0              0
X_144_0              0
X_145_0              0
X_146_0              0
X_147_0              0
X_148_0              0
X_149_0              0
X_150_0              0
X_151_0              0
X_152_0              0
X_153_0              0
X_154_0              0
X_155_0              0
X_156_0              0
X_157_0              0
X_158_0              0
X_159_0              0
X_160_0              0
X_161_0              0
X_162_0              0
X_163_0              0
X_164_0              0
X_165_0              0
X_0_1                0
X_1_1                0
X_2_1                0
X_3_1                0
X_4_1                0
X_5_1                0
X_6_1                0
X_7_1                0
X_8_1                0
X_9_1                0
X_10_1               0
X_11_1               0
X_12_1               0
X_13_1               1
X_14_1               0
X_15_1               0
X_16_1               0
X_17_1               0
X_18_1               0
X_19_1               0
X_20_1               0
X_21_1               0
X_22_1               0
X_23_1               0
X_24_1               0
X_25_1               0
X_26_1               0
X_27_1               0
X_28_1               0
X_29_1               0
X_30_1               0
X_31_1               0
X_32_1               0
X_33_1               0
X_34_1               0
X_35_1               0
X_36_1               0
X_37_1               0
X_38_1               0
X_39_1               1
X_40_1               0
X_41_1               0
X_42_1               0
X_43_1               0
X_44_1               0
X_45_1               0
X_46_1               0
X_47_1               0
X_48_1               0
X_49_1               0
X_50_1               0
X_51_1               1
X_52_1               1
X_53_1               1
X_54_1               0
X_55_1               0
X_56_1               0
X_57_1               0
X_58_1               0
X_59_1               0
X_60_1               0
X_61_1               0
X_62_1               0
X_63_1               0
X_64_1               0
X_65_1               0
X_66_1               1
X_67_1               1
X_68_1               0
X_69_1               0
X_70_1               0
X_71_1               0
X_72_1               0
X_73_1               0
X_74_1               0
X_75_1               0
X_76_1               0
X_77_1               0
X_78_1               0
X_79_1               1
X_80_1               0
X_81_1               0
X_82_1               0
X_83_1               0
X_84_1               0
X_85_1               0
X_86_1               0
X_87_1               0
X_88_1               0
X_89_1               0
X_90_1               1
X_91_1               1
X_92_1               0
X_93_1               0
X_94_1               0
X_95_1               0
X_96_1               0
X_97_1               0
X_98_1               0
X_99_1               0
X_100_1              0
X_101_1              0
X_102_1              1
X_103_1              1
X_104_1              1
X_105_1              1
X_106_1              0
X_107_1              0
X_108_1              0
X_109_1              0
X_110_1              0
X_111_1              0
X_112_1              0
X_113_1              0
X_114_1              0
X_115_1              0
X_116_1              0
X_117_1              1
X_118_1              1
X_119_1              0
X_120_1              0
X_121_1              0
X_122_1              0
X_123_1              0
X_124_1              0
X_125_1              0
X_126_1              0
X_127_1              0
X_128_1              1
X_129_1              1
X_130_1              1
X_131_1              0
X_132_1              0
X_133_1              1
X_134_1              0
X_135_1              0
X_136_1              0
X_137_1              0
X_138_1              1
X_139_1              0
X_140_1              0
X_141_1              0
X_142_1              0
X_143_1              0
X_144_1              0
X_145_1              0
X_146_1              1
X_147_1              1
X_148_1              0
X_149_1              0
X_150_1              0
X_151_1              0
X_152_1              0
X_153_1              0
X_154_1              0
X_155_1              0
X_156_1              1
X_157_1              0
X_158_1              0
X_159_1              0
X_160_1              0
X_161_1              0
X_162_1              0
X_163_1              0
X_164_1              1
X_165_1              0
X_0_2                0
X_1_2                0
X_2_2                0
X_3_2                0
X_4_2                1
X_5_2                0
X_6_2                0
X_7_2                0
X_8_2                0
X_9_2                0
X_10_2               0
X_11_2               0
X_12_2               1
X_13_2               1
X_14_2               0
X_15_2               0
X_16_2               0
X_17_2               0
X_18_2               0
X_19_2               0
X_20_2               0
X_21_2               0
X_22_2               1
X_23_2               0
X_24_2               0
X_25_2               0
X_26_2               0
X_27_2               0
X_28_2               0
X_29_2               0
X_30_2               0
X_31_2               0
X_32_2               0
X_33_2               0
X_34_2               0
X_35_2               0
X_36_2               0
X_37_2               0
X_38_2               1
X_39_2               1
X_40_2               0
X_41_2               0
X_42_2               0
X_43_2               0
X_44_2               0
X_45_2               0
X_46_2               0
X_47_2               0
X_48_2               0
X_49_2               0
X_50_2               1
X_51_2               1
X_52_2               1
X_53_2               1
X_54_2               0
X_55_2               0
X_56_2               0
X_57_2               0
X_58_2               0
X_59_2               0
X_60_2               0
X_61_2               0
X_62_2               0
X_63_2               0
X_64_2               0
X_65_2               0
X_66_2               1
X_67_2               1
X_68_2               0
X_69_2               0
X_70_2               0
X_71_2               0
X_72_2               0
X_73_2               0
X_74_2               0
X_75_2               0
X_76_2               0
X_77_2               0
X_78_2               0
X_79_2               1
X_80_2               0
X_81_2               0
X_82_2               0
X_83_2               0
X_84_2               0
X_85_2               0
X_86_2               0
X_87_2               0
X_88_2               0
X_89_2               1
X_90_2               1
X_91_2               1
X_92_2               0
X_93_2               0
X_94_2               0
X_95_2               0
X_96_2               0
X_97_2               0
X_98_2               0
X_99_2               0
X_100_2              0
X_101_2              1
X_102_2              1
X_103_2              1
X_104_2              1
X_105_2              1
X_106_2              0
X_107_2              0
X_108_2              0
X_109_2              0
X_110_2              0
X_111_2              0
X_112_2              0
X_113_2              0
X_114_2              0
X_115_2              0
X_116_2              1
X_117_2              1
X_118_2              1
X_119_2              0
X_120_2              0
X_121_2              0
X_122_2              0
X_123_2              0
X_124_2              0
X_125_2              0
X_126_2              0
X_127_2              0
X_128_2              1
X_129_2              1
X_130_2              1
X_131_2              0
X_132_2              0
X_133_2              1
X_134_2              0
X_135_2              0
X_136_2              0
X_137_2              1
X_138_2              1
X_139_2              0
X_140_2              0
X_141_2              0
X_142_2              0
X_143_2              0
X_144_2              0
X_145_2              1
X_146_2              1
X_147_2              1
X_148_2              0
X_149_2              0
X_150_2              0
X_151_2              0
X_152_2              0
X_153_2              0
X_154_2              0
X_155_2              1
X_156_2              1
X_157_2              0
X_158_2              0
X_159_2              0
X_160_2              0
X_161_2              0
X_162_2              0
X_163_2              1
X_164_2              1
X_165_2              0
X_0_3                0
X_1_3                0
X_2_3                1
X_3_3                1
X_4_3                1
X_5_3                0
X_6_3                0
X_7_3                0
X_8_3                0
X_9_3                0
X_10_3               0
X_11_3               1
X_12_3               1
X_13_3               1
X_14_3               0
X_15_3               0
X_16_3               0
X_17_3               0
X_18_3               0
X_19_3               0
X_20_3               0
X_21_3               1
X_22_3               1
X_23_3               0
X_24_3               0
X_25_3               0
X_26_3               0
X_27_3               0
X_28_3               0
X_29_3               1
X_30_3               0
X_31_3               0
X_32_3               0
X_33_3               0
X_34_3               0
X_35_3               0
X_36_3               0
X_37_3               1
X_38_3               1
X_39_3               1
X_40_3               0
X_41_3               0
X_42_3               0
X_43_3               0
X_44_3               0
X_45_3               0
X_46_3               0
X_47_3               0
X_48_3               0
X_49_3               0
X_50_3               1
X_51_3               1
X_52_3               1
X_53_3               1
X_54_3               0
X_55_3               0
X_56_3               0
X_57_3               0
X_58_3               0
X_59_3               0
X_60_3               0
X_61_3               0
X_62_3               0
X_63_3               0
X_64_3               0
X_65_3               1
X_66_3               1
X_67_3               1
X_68_3               0
X_69_3               0
X_70_3               0
X_71_3               0
X_72_3               0
X_73_3               0
X_74_3               0
X_75_3               0
X_76_3               0
X_77_3               0
X_78_3               1
X_79_3               1
X_80_3               0
X_81_3               1
X_82_3               1
X_83_3               0
X_84_3               0
X_85_3               0
X_86_3               0
X_87_3               0
X_88_3               1
X_89_3               1
X_90_3               1
X_91_3               1
X_92_3               0
X_93_3               0
X_94_3               0
X_95_3               0
X_96_3               0
X_97_3               0
X_98_3               0
X_99_3               0
X_100_3              1
X_101_3              1
X_102_3              1
X_103_3              1
X_104_3              1
X_105_3              1
X_106_3              0
X_107_3              0
X_108_3              0
X_109_3              0
X_110_3              0
X_111_3              0
X_112_3              0
X_113_3              0
X_114_3              0
X_115_3              0
X_116_3              1
X_117_3              1
X_118_3              1
X_119_3              0
X_120_3              0
X_121_3              0
X_122_3              0
X_123_3              0
X_124_3              0
X_125_3              0
X_126_3              0
X_127_3              0
X_128_3              1
X_129_3              1
X_130_3              1
X_131_3              0
X_132_3              1
X_133_3              1
X_134_3              0
X_135_3              0
X_136_3              1
X_137_3              1
X_138_3              1
X_139_3              0
X_140_3              0
X_141_3              0
X_142_3              0
X_143_3              0
X_144_3              1
X_145_3              1
X_146_3              1
X_147_3              1
X_148_3              0
X_149_3              0
X_150_3              0
X_151_3              0
X_152_3              0
X_153_3              0
X_154_3              1
X_155_3              1
X_156_3              1
X_157_3              0
X_158_3              0
X_159_3              0
X_160_3              0
X_161_3              0
X_162_3              0
X_163_3              1
X_164_3              1
X_165_3              1
X_0_4                0
X_1_4                0
X_2_4                1
X_3_4                1
X_4_4                1
X_5_4                0
X_6_4                0
X_7_4                0
X_8_4                0
X_9_4                0
X_10_4               1
X_11_4               1
X_12_4               1
X_13_4               1
X_14_4               0
X_15_4               0
X_16_4               0
X_17_4               0
X_18_4               0
X_19_4               0
X_20_4               1
X_21_4               1
X_22_4               1
X_23_4               0
X_24_4               0
X_25_4               0
X_26_4               0
X_27_4               1
X_28_4               1
X_29_4               1
X_30_4               1
X_31_4               0
X_32_4               0
X_33_4               0
X_34_4               0
X_35_4               0
X_36_4               1
X_37_4               1
X_38_4               1
X_39_4               1
X_40_4               0
X_41_4               0
X_42_4               0
X_43_4               0
X_44_4               0
X_45_4               0
X_46_4               0
X_47_4               0
X_48_4               1
X_49_4               1
X_50_4               1
X_51_4               1
X_52_4               1
X_53_4               1
X_54_4               0
X_55_4               0
X_56_4               0
X_57_4               0
X_58_4               0
X_59_4               0
X_60_4               0
X_61_4               0
X_62_4               0
X_63_4               1
X_64_4               1
X_65_4               1
X_66_4               1
X_67_4               1
X_68_4               0
X_69_4               0
X_70_4               0
X_71_4               0
X_72_4               0
X_73_4               0
X_74_4               0
X_75_4               0
X_76_4               0
X_77_4               1
X_78_4               1
X_79_4               1
X_80_4               0
X_81_4               1
X_82_4               1
X_83_4               0
X_84_4               0
X_85_4               0
X_86_4               0
X_87_4               0
X_88_4               1
X_89_4               1
X_90_4               1
X_91_4               1
X_92_4               0
X_93_4               0
X_94_4               0
X_95_4               0
X_96_4               0
X_97_4               0
X_98_4               0
X_99_4               0
X_100_4              1
X_101_4              1
X_102_4              1
X_103_4              1
X_104_4              1
X_105_4              1
X_106_4              0
X_107_4              0
X_108_4              0
X_109_4              0
X_110_4              0
X_111_4              0
X_112_4              0
X_113_4              0
X_114_4              0
X_115_4              1
X_116_4              1
X_117_4              1
X_118_4              1
X_119_4              0
X_120_4              0
X_121_4              0
X_122_4              0
X_123_4              0
X_124_4              0
X_125_4              0
X_126_4              0
X_127_4              1
X_128_4              1
X_129_4              1
X_130_4              1
X_131_4              1
X_132_4              1
X_133_4              1
X_134_4              0
X_135_4              0
X_136_4              1
X_137_4              1
X_138_4              1
X_139_4              0
X_140_4              0
X_141_4              0
X_142_4              0
X_143_4              0
X_144_4              1
X_145_4              1
X_146_4              1
X_147_4              1
X_148_4              0
X_149_4              0
X_150_4              0
X_151_4              0
X_152_4              0
X_153_4              0
X_154_4              1
X_155_4              1
X_156_4              1
X_157_4              0
X_158_4              0
X_159_4              0
X_160_4              0
X_161_4              0
X_162_4              0
X_163_4              1
X_164_4              1
X_165_4              1
X_0_5                0
X_1_5                0
X_2_5                1
X_3_5                1
X_4_5                1
X_5_5                0
X_6_5                0
X_7_5                0
X_8_5                0
X_9_5                0
X_10_5               1
X_11_5               1
X_12_5               1
X_13_5               1
X_14_5               0
X_15_5               0
X_16_5               0
X_17_5               0
X_18_5               0
X_19_5               1
X_20_5               1
X_21_5               1
X_22_5               1
X_23_5               0
X_24_5               0
X_25_5               0
X_26_5               0
X_27_5               1
X_28_5               1
X_29_5               1
X_30_5               1
X_31_5               0
X_32_5               0
X_33_5               0
X_34_5               0
X_35_5               0
X_36_5               1
X_37_5               1
X_38_5               1
X_39_5               1
X_40_5               0
X_41_5               0
X_42_5               0
X_43_5               0
X_44_5               0
X_45_5               0
X_46_5               0
X_47_5               0
X_48_5               1
X_49_5               1
X_50_5               1
X_51_5               1
X_52_5               1
X_53_5               1
X_54_5               0
X_55_5               0
X_56_5               0
X_57_5               0
X_58_5               0
X_59_5               0
X_60_5               0
X_61_5               0
X_62_5               0
X_63_5               1
X_64_5               1
X_65_5               1
X_66_5               1
X_67_5               1
X_68_5               0
X_69_5               0
X_70_5               0
X_71_5               0
X_72_5               0
X_73_5               0
X_74_5               0
X_75_5               0
X_76_5               1
X_77_5               1
X_78_5               1
X_79_5               1
X_80_5               1
X_81_5               1
X_82_5               1
X_83_5               0
X_84_5               0
X_85_5               0
X_86_5               0
X_87_5               1
X_88_5               1
X_89_5               1
X_90_5               1
X_91_5               1
X_92_5               0
X_93_5               0
X_94_5               0
X_95_5               0
X_96_5               0
X_97_5               0
X_98_5               0
X_99_5               1
X_100_5              1
X_101_5              1
X_102_5              1
X_103_5              1
X_104_5              1
X_105_5              1
X_106_5              0
X_107_5              0
X_108_5              0
X_109_5              0
X_110_5              0
X_111_5              0
X_112_5              0
X_113_5              1
X_114_5              1
X_115_5              1
X_116_5              1
X_117_5              1
X_118_5              1
X_119_5              0
X_120_5              0
X_121_5              0
X_122_5              0
X_123_5              0
X_124_5              0
X_125_5              1
X_126_5              1
X_127_5              1
X_128_5              1
X_129_5              1
X_130_5              1
X_131_5              1
X_132_5              1
X_133_5              1
X_134_5              0
X_135_5              1
X_136_5              1
X_137_5              1
X_138_5              1
X_139_5              0
X_140_5              0
X_141_5              0
X_142_5              0
X_143_5              1
X_144_5              1
X_145_5              1
X_146_5              1
X_147_5              1
X_148_5              0
X_149_5              0
X_150_5              0
X_151_5              0
X_152_5              1
X_153_5              1
X_154_5              1
X_155_5              1
X_156_5              1
X_157_5              0
X_158_5              0
X_159_5              1
X_160_5              1
X_161_5              1
X_162_5              1
X_163_5              1
X_164_5              1
X_165_5              1
X_0_6                0
X_1_6                1
X_2_6                1
X_3_6                1
X_4_6                1
X_5_6                0
X_6_6                0
X_7_6                0
X_8_6                0
X_9_6                1
X_10_6               1
X_11_6               1
X_12_6               1
X_13_6               1
X_14_6               0
X_15_6               0
X_16_6               0
X_17_6               0
X_18_6               1
X_19_6               1
X_20_6               1
X_21_6               1
X_22_6               1
X_23_6               0
X_24_6               0
X_25_6               0
X_26_6               1
X_27_6               1
X_28_6               1
X_29_6               1
X_30_6               1
X_31_6               0
X_32_6               0
X_33_6               0
X_34_6               0
X_35_6               1
X_36_6               1
X_37_6               1
X_38_6               1
X_39_6               1
X_40_6               0
X_41_6               0
X_42_6               0
X_43_6               0
X_44_6               0
X_45_6               0
X_46_6               0
X_47_6               1
X_48_6               1
X_49_6               1
X_50_6               1
X_51_6               1
X_52_6               1
X_53_6               1
X_54_6               0
X_55_6               0
X_56_6               0
X_57_6               0
X_58_6               0
X_59_6               0
X_60_6               0
X_61_6               1
X_62_6               1
X_63_6               1
X_64_6               1
X_65_6               1
X_66_6               1
X_67_6               1
X_68_6               0
X_69_6               0
X_70_6               0
X_71_6               0
X_72_6               0
X_73_6               0
X_74_6               0
X_75_6               1
X_76_6               1
X_77_6               1
X_78_6               1
X_79_6               1
X_80_6               1
X_81_6               1
X_82_6               1
X_83_6               0
X_84_6               0
X_85_6               0
X_86_6               1
X_87_6               1
X_88_6               1
X_89_6               1
X_90_6               1
X_91_6               1
X_92_6               0
X_93_6               0
X_94_6               0
X_95_6               0
X_96_6               0
X_97_6               0
X_98_6               1
X_99_6               1
X_100_6              1
X_101_6              1
X_102_6              1
X_103_6              1
X_104_6              1
X_105_6              1
X_106_6              0
X_107_6              0
X_108_6              0
X_109_6              0
X_110_6              0
X_111_6              0
X_112_6              1
X_113_6              1
X_114_6              1
X_115_6              1
X_116_6              1
X_117_6              1
X_118_6              1
X_119_6              0
X_120_6              0
X_121_6              0
X_122_6              0
X_123_6              0
X_124_6              0
X_125_6              1
X_126_6              1
X_127_6              1
X_128_6              1
X_129_6              1
X_130_6              1
X_131_6              1
X_132_6              1
X_133_6              1
X_134_6              1
X_135_6              1
X_136_6              1
X_137_6              1
X_138_6              1
X_139_6              0
X_140_6              0
X_141_6              0
X_142_6              1
X_143_6              1
X_144_6              1
X_145_6              1
X_146_6              1
X_147_6              1
X_148_6              0
X_149_6              1
X_150_6              1
X_151_6              1
X_152_6              1
X_153_6              1
X_154_6              1
X_155_6              1
X_156_6              1
X_157_6              1
X_158_6              1
X_159_6              1
X_160_6              1
X_161_6              1
X_162_6              1
X_163_6              1
X_164_6              1
X_165_6              1
X_0_7                1
X_1_7                1
X_2_7                1
X_3_7                1
X_4_7                1
X_5_7                0
X_6_7                0
X_7_7                0
X_8_7                1
X_9_7                1
X_10_7               1
X_11_7               1
X_12_7               1
X_13_7               1
X_14_7               0
X_15_7               0
X_16_7               0
X_17_7               1
X_18_7               1
X_19_7               1
X_20_7               1
X_21_7               1
X_22_7               1
X_23_7               1
X_24_7               1
X_25_7               1
X_26_7               1
X_27_7               1
X_28_7               1
X_29_7               1
X_30_7               1
X_31_7               0
X_32_7               0
X_33_7               0
X_34_7               1
X_35_7               1
X_36_7               1
X_37_7               1
X_38_7               1
X_39_7               1
X_40_7               0
X_41_7               0
X_42_7               0
X_43_7               0
X_44_7               0
X_45_7               0
X_46_7               1
X_47_7               1
X_48_7               1
X_49_7               1
X_50_7               1
X_51_7               1
X_52_7               1
X_53_7               1
X_54_7               0
X_55_7               0
X_56_7               0
X_57_7               0
X_58_7               0
X_59_7               0
X_60_7               1
X_61_7               1
X_62_7               1
X_63_7               1
X_64_7               1
X_65_7               1
X_66_7               1
X_67_7               1
X_68_7               0
X_69_7               0
X_70_7               0
X_71_7               0
X_72_7               1
X_73_7               1
X_74_7               1
X_75_7               1
X_76_7               1
X_77_7               1
X_78_7               1
X_79_7               1
X_80_7               1
X_81_7               1
X_82_7               1
X_83_7               0
X_84_7               0
X_85_7               1
X_86_7               1
X_87_7               1
X_88_7               1
X_89_7               1
X_90_7               1
X_91_7               1
X_92_7               0
X_93_7               0
X_94_7               0
X_95_7               0
X_96_7               0
X_97_7               1
X_98_7               1
X_99_7               1
X_100_7              1
X_101_7              1
X_102_7              1
X_103_7              1
X_104_7              1
X_105_7              1
X_106_7              0
X_107_7              0
X_108_7              0
X_109_7              0
X_110_7              0
X_111_7              1
X_112_7              1
X_113_7              1
X_114_7              1
X_115_7              1
X_116_7              1
X_117_7              1
X_118_7              1
X_119_7              0
X_120_7              0
X_121_7              1
X_122_7              1
X_123_7              1
X_124_7              1
X_125_7              1
X_126_7              1
X_127_7              1
X_128_7              1
X_129_7              1
X_130_7              1
X_131_7              1
X_132_7              1
X_133_7              1
X_134_7              1
X_135_7              1
X_136_7              1
X_137_7              1
X_138_7              1
X_139_7              0
X_140_7              0
X_141_7              1
X_142_7              1
X_143_7              1
X_144_7              1
X_145_7              1
X_146_7              1
X_147_7              1
X_148_7              0
X_149_7              1
X_150_7              1
X_151_7              1
X_152_7              1
X_153_7              1
X_154_7              1
X_155_7              1
X_156_7              1
X_157_7              1
X_158_7              1
X_159_7              1
X_160_7              1
X_161_7              1
X_162_7              1
X_163_7              1
X_164_7              1
X_165_7              1
X_0_8                1
X_1_8                1
X_2_8                1
X_3_8                1
X_4_8                1
X_5_8                1
X_6_8                1
X_7_8                1
X_8_8                1
X_9_8                1
X_10_8               1
X_11_8               1
X_12_8               1
X_13_8               1
X_14_8               1
X_15_8               1
X_16_8               1
X_17_8               1
X_18_8               1
X_19_8               1
X_20_8               1
X_21_8               1
X_22_8               1
X_23_8               1
X_24_8               1
X_25_8               1
X_26_8               1
X_27_8               1
X_28_8               1
X_29_8               1
X_30_8               1
X_31_8               1
X_32_8               1
X_33_8               1
X_34_8               1
X_35_8               1
X_36_8               1
X_37_8               1
X_38_8               1
X_39_8               1
X_40_8               0
X_41_8               0
X_42_8               1
X_43_8               1
X_44_8               1
X_45_8               1
X_46_8               1
X_47_8               1
X_48_8               1
X_49_8               1
X_50_8               1
X_51_8               1
X_52_8               1
X_53_8               1
X_54_8               0
X_55_8               0
X_56_8               0
X_57_8               0
X_58_8               1
X_59_8               1
X_60_8               1
X_61_8               1
X_62_8               1
X_63_8               1
X_64_8               1
X_65_8               1
X_66_8               1
X_67_8               1
X_68_8               0
X_69_8               0
X_70_8               1
X_71_8               1
X_72_8               1
X_73_8               1
X_74_8               1
X_75_8               1
X_76_8               1
X_77_8               1
X_78_8               1
X_79_8               1
X_80_8               1
X_81_8               1
X_82_8               1
X_83_8               1
X_84_8               1
X_85_8               1
X_86_8               1
X_87_8               1
X_88_8               1
X_89_8               1
X_90_8               1
X_91_8               1
X_92_8               0
X_93_8               0
X_94_8               0
X_95_8               0
X_96_8               1
X_97_8               1
X_98_8               1
X_99_8               1
X_100_8              1
X_101_8              1
X_102_8              1
X_103_8              1
X_104_8              1
X_105_8              1
X_106_8              0
X_107_8              0
X_108_8              0
X_109_8              0
X_110_8              0
X_111_8              1
X_112_8              1
X_113_8              1
X_114_8              1
X_115_8              1
X_116_8              1
X_117_8              1
X_118_8              1
X_119_8              0
X_120_8              1
X_121_8              1
X_122_8              1
X_123_8              1
X_124_8              1
X_125_8              1
X_126_8              1
X_127_8              1
X_128_8              1
X_129_8              1
X_130_8              1
X_131_8              1
X_132_8              1
X_133_8              1
X_134_8              1
X_135_8              1
X_136_8              1
X_137_8              1
X_138_8              1
X_139_8              1
X_140_8              1
X_141_8              1
X_142_8              1
X_143_8              1
X_144_8              1
X_145_8              1
X_146_8              1
X_147_8              1
X_148_8              0
X_149_8              1
X_150_8              1
X_151_8              1
X_152_8              1
X_153_8              1
X_154_8              1
X_155_8              1
X_156_8              1
X_157_8              1
X_158_8              1
X_159_8              1
X_160_8              1
X_161_8              1
X_162_8              1
X_163_8              1
X_164_8              1
X_165_8              1
X_0_9                1
X_1_9                1
X_2_9                1
X_3_9                1
X_4_9                1
X_5_9                1
X_6_9                1
X_7_9                1
X_8_9                1
X_9_9                1
X_10_9               1
X_11_9               1
X_12_9               1
X_13_9               1
X_14_9               1
X_15_9               1
X_16_9               1
X_17_9               1
X_18_9               1
X_19_9               1
X_20_9               1
X_21_9               1
X_22_9               1
X_23_9               1
X_24_9               1
X_25_9               1
X_26_9               1
X_27_9               1
X_28_9               1
X_29_9               1
X_30_9               1
X_31_9               1
X_32_9               1
X_33_9               1
X_34_9               1
X_35_9               1
X_36_9               1
X_37_9               1
X_38_9               1
X_39_9               1
X_40_9               0
X_41_9               1
X_42_9               1
X_43_9               1
X_44_9               1
X_45_9               1
X_46_9               1
X_47_9               1
X_48_9               1
X_49_9               1
X_50_9               1
X_51_9               1
X_52_9               1
X_53_9               1
X_54_9               0
X_55_9               1
X_56_9               1
X_57_9               1
X_58_9               1
X_59_9               1
X_60_9               1
X_61_9               1
X_62_9               1
X_63_9               1
X_64_9               1
X_65_9               1
X_66_9               1
X_67_9               1
X_68_9               1
X_69_9               1
X_70_9               1
X_71_9               1
X_72_9               1
X_73_9               1
X_74_9               1
X_75_9               1
X_76_9               1
X_77_9               1
X_78_9               1
X_79_9               1
X_80_9               1
X_81_9               1
X_82_9               1
X_83_9               1
X_84_9               1
X_85_9               1
X_86_9               1
X_87_9               1
X_88_9               1
X_89_9               1
X_90_9               1
X_91_9               1
X_92_9               0
X_93_9               1
X_94_9               1
X_95_9               1
X_96_9               1
X_97_9               1
X_98_9               1
X_99_9               1
X_100_9              1
X_101_9              1
X_102_9              1
X_103_9              1
X_104_9              1
X_105_9              1
X_106_9              0
X_107_9              0
X_108_9              0
X_109_9              1
X_110_9              1
X_111_9              1
X_112_9              1
X_113_9              1
X_114_9              1
X_115_9              1
X_116_9              1
X_117_9              1
X_118_9              1
X_119_9              1
X_120_9              1
X_121_9              1
X_122_9              1
X_123_9              1
X_124_9              1
X_125_9              1
X_126_9              1
X_127_9              1
X_128_9              1
X_129_9              1
X_130_9              1
X_131_9              1
X_132_9              1
X_133_9              1
X_134_9              1
X_135_9              1
X_136_9              1
X_137_9              1
X_138_9              1
X_139_9              1
X_140_9              1
X_141_9              1
X_142_9              1
X_143_9              1
X_144_9              1
X_145_9              1
X_146_9              1
X_147_9              1
X_148_9              1
X_149_9              1
X_150_9              1
X_151_9              1
X_152_9              1
X_153_9              1
X_154_9              1
X_155_9              1
X_156_9              1
X_157_9              1
X_158_9              1
X_159_9              1
X_160_9              1
X_161_9              1
X_162_9              1
X_163_9              1
X_164_9              1
X_165_9              1
